benchmarks_CP/INST_36x36/55/inst36x36_55_2.dzn
S=6;
start=[|
14,	3,	6,	13,	-1,	16,	-1,	24,	2,	18,	-1,	11,	23,	8,	-1,	-1,	19,	-1,	36,	30,	-1,	-1,	-1,	12,	29,	15,	32,	-1,	-1,	-1,	-1,	-1,	-1,	-1,	-1,	-1|
30,	29,	34,	19,	-1,	-1,	20,	10,	5,	13,	23,	-1,	-1,	-1,	-1,	31,	-1,	1,	8,	25,	-1,	9,	14,	-1,	6,	-1,	21,	27,	4,	-1,	36,	11,	22,	-1,	12,	-1|
-1,	-1,	15,	36,	20,	12,	4,	30,	7,	-1,	16,	-1,	18,	-1,	-1,	3,	21,	10,	-1,	-1,	-1,	2,	29,	1,	-1,	-1,	34,	28,	9,	-1,	-1,	-1,	23,	19,	25,	-1|
7,	-1,	1,	-1,	-1,	10,	-1,	-1,	26,	12,	35,	6,	-1,	-1,	-1,	-1,	33,	13,	27,	-1,	-1,	-1,	34,	-1,	19,	-1,	-1,	-1,	36,	-1,	-1,	-1,	20,	-1,	18,	28|
4,	-1,	-1,	-1,	9,	-1,	22,	15,	-1,	-1,	36,	-1,	12,	32,	11,	30,	-1,	34,	28,	6,	-1,	3,	-1,	7,	-1,	-1,	20,	-1,	-1,	-1,	8,	14,	29,	-1,	-1,	24|
5,	-1,	8,	11,	17,	-1,	-1,	-1,	-1,	-1,	-1,	-1,	6,	15,	25,	36,	-1,	7,	-1,	-1,	-1,	-1,	21,	-1,	-1,	-1,	26,	12,	-1,	13,	35,	33,	4,	-1,	-1,	2|
-1,	-1,	-1,	17,	15,	-1,	-1,	-1,	-1,	-1,	-1,	-1,	31,	-1,	3,	27,	34,	-1,	19,	-1,	29,	26,	-1,	5,	-1,	18,	28,	-1,	22,	14,	10,	8,	35,	-1,	36,	-1|
31,	-1,	30,	-1,	25,	-1,	-1,	-1,	23,	-1,	10,	-1,	1,	17,	-1,	-1,	-1,	16,	4,	20,	-1,	-1,	-1,	14,	-1,	-1,	27,	-1,	-1,	-1,	34,	28,	-1,	-1,	-1,	-1|
33,	-1,	-1,	23,	21,	-1,	-1,	12,	-1,	-1,	-1,	7,	24,	-1,	-1,	-1,	22,	-1,	-1,	18,	25,	13,	8,	28,	1,	5,	16,	-1,	30,	17,	11,	-1,	31,	-1,	27,	14|
13,	-1,	14,	6,	-1,	-1,	-1,	-1,	-1,	-1,	22,	26,	-1,	19,	12,	9,	5,	-1,	-1,	15,	-1,	34,	32,	11,	-1,	21,	29,	31,	35,	4,	-1,	-1,	33,	3,	16,	23|
34,	-1,	29,	4,	27,	-1,	-1,	1,	16,	-1,	20,	36,	-1,	30,	33,	15,	-1,	25,	12,	23,	21,	-1,	35,	17,	-1,	9,	19,	-1,	32,	2,	18,	5,	6,	-1,	26,	-1|
26,	-1,	-1,	5,	8,	36,	2,	-1,	-1,	-1,	19,	-1,	-1,	-1,	-1,	13,	-1,	4,	-1,	-1,	3,	22,	-1,	33,	-1,	34,	-1,	7,	6,	-1,	32,	9,	-1,	12,	-1,	-1|
25,	23,	-1,	12,	6,	28,	1,	14,	36,	21,	3,	-1,	8,	5,	-1,	2,	20,	-1,	13,	22,	-1,	-1,	-1,	-1,	30,	-1,	33,	24,	16,	-1,	19,	29,	18,	34,	-1,	35|
36,	15,	-1,	22,	-1,	29,	-1,	20,	-1,	-1,	7,	28,	-1,	1,	9,	-1,	-1,	17,	-1,	-1,	-1,	35,	6,	-1,	26,	13,	-1,	-1,	-1,	32,	-1,	-1,	-1,	-1,	-1,	4|
20,	-1,	-1,	32,	11,	4,	18,	29,	-1,	9,	-1,	15,	-1,	3,	27,	19,	-1,	31,	23,	-1,	24,	16,	25,	34,	5,	1,	-1,	-1,	12,	-1,	-1,	30,	26,	36,	-1,	-1|
35,	34,	26,	27,	2,	1,	25,	13,	30,	-1,	24,	-1,	32,	16,	6,	11,	-1,	18,	7,	29,	-1,	-1,	17,	-1,	15,	-1,	-1,	-1,	20,	28,	5,	-1,	3,	-1,	-1,	22|
16,	33,	-1,	14,	3,	-1,	17,	-1,	31,	-1,	-1,	19,	21,	7,	-1,	29,	35,	-1,	26,	-1,	-1,	-1,	-1,	-1,	-1,	-1,	-1,	-1,	-1,	23,	20,	-1,	9,	27,	1,	6|
-1,	-1,	10,	-1,	13,	30,	16,	26,	6,	34,	2,	35,	-1,	25,	28,	33,	23,	-1,	3,	-1,	20,	-1,	1,	-1,	-1,	-1,	-1,	-1,	-1,	27,	12,	24,	15,	-1,	-1,	11|
1,	-1,	27,	-1,	26,	15,	6,	-1,	28,	23,	13,	-1,	-1,	-1,	16,	21,	-1,	29,	-1,	11,	-1,	33,	36,	-1,	9,	35,	-1,	32,	-1,	-1,	30,	10,	5,	4,	19,	20|
-1,	-1,	-1,	-1,	12,	31,	27,	11,	3,	-1,	15,	5,	-1,	-1,	10,	-1,	-1,	9,	34,	21,	-1,	29,	28,	-1,	-1,	8,	-1,	13,	25,	19,	24,	16,	32,	18,	-1,	36|
-1,	-1,	-1,	-1,	-1,	6,	7,	-1,	21,	-1,	-1,	-1,	14,	-1,	-1,	-1,	17,	32,	-1,	1,	9,	-1,	4,	-1,	28,	-1,	5,	10,	11,	-1,	-1,	31,	-1,	-1,	29,	8|
2,	-1,	-1,	33,	-1,	-1,	-1,	-1,	4,	29,	-1,	-1,	-1,	-1,	-1,	-1,	-1,	-1,	-1,	26,	-1,	24,	-1,	-1,	-1,	20,	-1,	-1,	-1,	1,	22,	34,	-1,	9,	21,	27|
-1,	-1,	21,	20,	4,	11,	10,	22,	-1,	-1,	-1,	8,	-1,	-1,	-1,	34,	27,	5,	-1,	-1,	-1,	-1,	-1,	-1,	7,	-1,	18,	2,	-1,	33,	-1,	-1,	1,	-1,	-1,	25|
10,	22,	19,	29,	-1,	32,	-1,	9,	-1,	26,	-1,	34,	-1,	-1,	13,	1,	-1,	-1,	5,	-1,	-1,	17,	-1,	8,	31,	-1,	6,	4,	-1,	-1,	28,	2,	7,	35,	23,	12|
32,	1,	-1,	28,	7,	-1,	12,	-1,	11,	5,	6,	17,	-1,	2,	-1,	-1,	-1,	8,	24,	16,	-1,	31,	3,	-1,	-1,	36,	-1,	35,	13,	-1,	-1,	19,	-1,	-1,	-1,	18|
9,	-1,	-1,	35,	-1,	-1,	3,	-1,	27,	7,	-1,	-1,	16,	-1,	21,	-1,	13,	-1,	22,	33,	-1,	12,	5,	29,	32,	26,	-1,	8,	-1,	34,	-1,	36,	17,	25,	2,	30|
19,	16,	13,	26,	34,	-1,	31,	-1,	10,	-1,	-1,	2,	7,	11,	5,	24,	25,	27,	20,	4,	35,	-1,	-1,	-1,	22,	6,	-1,	21,	18,	29,	-1,	1,	-1,	-1,	3,	-1|
27,	-1,	2,	31,	23,	3,	-1,	21,	15,	16,	29,	-1,	34,	-1,	32,	6,	36,	-1,	-1,	8,	19,	-1,	26,	-1,	-1,	-1,	-1,	14,	-1,	9,	-1,	-1,	-1,	11,	35,	10|
-1,	12,	22,	-1,	-1,	-1,	-1,	-1,	-1,	36,	-1,	-1,	4,	-1,	-1,	17,	3,	-1,	6,	-1,	-1,	30,	-1,	10,	11,	-1,	7,	1,	23,	-1,	-1,	32,	-1,	8,	-1,	34|
-1,	36,	-1,	24,	-1,	25,	-1,	-1,	-1,	-1,	-1,	-1,	9,	10,	-1,	-1,	18,	-1,	15,	28,	11,	-1,	-1,	23,	-1,	-1,	-1,	-1,	-1,	31,	13,	26,	16,	6,	-1,	-1|
-1,	25,	-1,	8,	-1,	-1,	5,	16,	-1,	-1,	12,	-1,	-1,	-1,	-1,	-1,	-1,	14,	32,	-1,	-1,	-1,	23,	26,	4,	29,	11,	-1,	33,	35,	27,	22,	10,	13,	-1,	-1|
-1,	-1,	33,	10,	-1,	-1,	-1,	-1,	-1,	35,	9,	-1,	-1,	-1,	-1,	25,	6,	-1,	-1,	-1,	-1,	8,	12,	24,	16,	-1,	36,	26,	28,	-1,	-1,	15,	-1,	-1,	11,	-1|
6,	-1,	-1,	-1,	31,	26,	-1,	3,	17,	4,	11,	-1,	27,	9,	-1,	8,	-1,	-1,	-1,	-1,	-1,	-1,	-1,	30,	-1,	-1,	-1,	5,	10,	22,	29,	35,	-1,	28,	32,	-1|
11,	4,	-1,	15,	-1,	-1,	33,	18,	8,	6,	-1,	25,	5,	13,	29,	-1,	10,	20,	31,	27,	16,	-1,	22,	-1,	21,	7,	1,	30,	-1,	24,	9,	12,	36,	17,	34,	26|
-1,	5,	9,	-1,	-1,	-1,	-1,	36,	-1,	28,	21,	22,	-1,	12,	26,	-1,	1,	24,	25,	-1,	-1,	-1,	10,	-1,	27,	17,	-1,	18,	31,	3,	23,	20,	-1,	33,	4,	16|
22,	20,	28,	1,	-1,	27,	29,	7,	34,	-1,	26,	-1,	-1,	33,	30,	16,	4,	-1,	-1,	35,	17,	14,	11,	-1,	-1,	-1,	13,	-1,	8,	15,	-1,	-1,	-1,	5,	6,	31|];
